c Sudoku solution
p cnf 729 0
121 0
138 0
177 0
243 0
272 0
327 0
457 0
267 0
461 0
516 0
584 0
613 0
333 0
714 0
745 0
793 0
183 0
473 0
822 0
923 0
858 0
863 0
553 0
986 0
598 0
537 0
631 0
571 0
432 0
234 0
226 0
787 0
992 0
751 0
762 0
846 0
947 0
736 0
817 0
911 0
728 0
779 0
978 0
839 0
935 0
418 0
341 0
368 0
496 0
648 0
542 0
376 0
874 0
675 0
489 0
425 0
624 0
529 0
444 0
565 0
149 0
255 0
219 0
682 0
697 0
288 0
291 0
881 0
895 0
385 0
194 0
399 0
166 0
354 0
152 0
115 0
312 0
959 0
964 0
656 0
669 0
